75
[7,8,9,10,11,12,13,14,15,16,17,18,19,20,21,22,23,24,25,26,27,28,29,30,31,32,33,34,35,36,37,38,39,40,41,42,43,44,45,46,47,48,49,50,51,52,53,54,55,56,57,58,59,60]
[7,6,9,5,1,4,6,3,7,7,5,9,4,8,8,6,9,5,7,7,4,3,5,3,7,2,4,7,11,5,9,3,5,6,8,7,4,2,5,4,6,4,6,6,6,4,5,8,3,7,4,7,3,4]
